
n_res = 6;
rcap = [40, 35, 29, 35, 790, 873];
rtype = [1, 1, 1, 1, 2, 2];
n_tasks = 50;
modes =  [{1, 2, 3}, {4, 5, 6}, {7, 8, 9}, {10, 11, 12}, {13, 14, 15}, {16, 17, 18}, {19, 20, 21}, {22, 23, 24}, {25, 26, 27}, {28, 29, 30}, {31, 32, 33}, {34, 35, 36}, {37, 38, 39}, {40, 41, 42}, {43, 44, 45}, {46, 47, 48}, {49, 50, 51}, {52, 53, 54}, {55, 56, 57}, {58, 59, 60}, {61, 62, 63}, {64, 65, 66}, {67, 68, 69}, {70, 71, 72}, {73, 74, 75}, {76, 77, 78}, {79, 80, 81}, {82, 83, 84}, {85, 86, 87}, {88, 89, 90}, {91, 92, 93}, {94, 95, 96}, {97, 98, 99}, {100, 101, 102}, {103, 104, 105}, {106, 107, 108}, {109, 110, 111}, {112, 113, 114}, {115, 116, 117}, {118, 119, 120}, {121, 122, 123}, {124, 125, 126}, {127, 128, 129}, {130, 131, 132}, {133, 134, 135}, {136, 137, 138}, {139, 140, 141}, {142, 143, 144}, {145, 146, 147}, {148, 149, 150}];
succ =  [{21, 18, 17, 14, 12, 10, 7}, {25, 21, 14, 9, 8}, {27, 25, 24, 20, 19, 18, 14, 13}, {34, 25, 19, 18, 16, 15, 14}, {25, 24, 21, 20, 19, 9}, {31, 28, 27, 26, 22, 21, 20, 19, 18}, {36, 34, 31, 30, 29, 28, 27, 26, 25, 23, 20}, {27, 26, 24, 20, 19, 18}, {36, 34, 33, 32, 29, 27, 26, 22, 18}, {36, 35, 34, 33, 31, 30, 29, 27, 26, 23, 22}, {36, 34, 33, 32, 29, 27, 26, 24, 22, 21}, {36, 32, 29, 28, 24, 16}, {41, 36, 32, 31, 28, 26, 23, 22}, {41, 36, 33, 32, 31, 28, 23}, {36, 35, 31, 27, 22}, {39, 35, 31, 30, 26}, {41, 34, 29, 24, 22}, {48, 37, 35, 30, 23}, {50, 49, 48, 40, 36, 32, 29}, {50, 49, 47, 46, 45, 41, 40, 37, 33}, {50, 49, 48, 44, 41, 39, 37, 35}, {50, 49, 48, 47, 46, 42, 40, 37}, {50, 49, 47, 42, 40, 39, 38}, {49, 48, 44, 42, 39, 37}, {47, 46, 45, 44, 42, 37}, {50, 48, 47, 46, 42, 40}, {47, 44, 43, 41, 39}, {49, 48, 45, 44, 35}, {47, 46, 45, 37}, {50, 47, 41, 40}, {49, 46, 44, 37}, {39, 37}, {48, 38}, {42, 38}, {46, 42}, {45, 42}, {38}, {43}, {45}, {44}, {42}, {}, {}, {}, {}, {}, {}, {}, {}, {}];
n_opt = 150;
dur = [4, 7, 16, 6, 12, 15, 8, 18, 24, 20, 24, 27, 9, 24, 25, 6, 9, 10, 22, 27, 30, 4, 9, 16, 18, 20, 24, 3, 8, 19, 7, 8, 25, 1, 20, 27, 2, 8, 18, 1, 13, 20, 5, 14, 16, 8, 13, 14, 15, 25, 30, 8, 11, 15, 2, 6, 16, 7, 15, 29, 2, 12, 13, 16, 27, 28, 20, 23, 26, 12, 16, 17, 9, 10, 26, 18, 21, 24, 7, 17, 30, 9, 14, 29, 7, 15, 30, 3, 24, 28, 13, 15, 30, 24, 26, 27, 3, 8, 14, 2, 3, 21, 7, 14, 22, 8, 23, 26, 5, 21, 23, 17, 21, 24, 10, 28, 29, 8, 13, 25, 3, 9, 24, 6, 20, 28, 9, 12, 29, 13, 18, 21, 12, 17, 23, 14, 19, 22, 23, 28, 29, 10, 14, 20, 10, 16, 22, 6, 9, 29];
rreq = [|2, 1, 1, 2, 2, 1, 5, 3, 2, 3, 2, 2, 3, 2, 2, 4, 3, 3, 5, 2, 1, 1, 1, 1, 3, 3, 3, 5, 4, 4, 4, 3, 3, 4, 2, 2, 4, 3, 3, 4, 2, 1, 1, 1, 1, 3, 3, 3, 4, 4, 4, 4, 3, 3, 4, 4, 4, 5, 3, 3, 3, 3, 3, 3, 2, 1, 2, 2, 2, 4, 3, 3, 2, 1, 1, 5, 3, 3, 4, 4, 4, 4, 3, 2, 5, 4, 3, 4, 4, 3, 4, 4, 4, 4, 3, 2, 2, 1, 1, 5, 4, 3, 2, 1, 1, 3, 3, 2, 3, 3, 1, 5, 5, 5, 4, 3, 3, 2, 1, 1, 5, 4, 4, 4, 4, 4, 2, 2, 2, 1, 1, 1, 1, 1, 1, 3, 3, 3, 4, 4, 4, 4, 3, 3, 3, 3, 3, 5, 3, 2
 |4, 3, 2, 2, 1, 1, 2, 2, 2, 3, 3, 2, 5, 3, 1, 3, 3, 1, 5, 4, 4, 3, 3, 3, 4, 2, 2, 2, 1, 1, 4, 3, 3, 5, 4, 3, 4, 3, 3, 3, 3, 3, 4, 3, 2, 5, 4, 2, 4, 3, 3, 5, 5, 5, 4, 4, 3, 3, 3, 3, 2, 2, 2, 2, 1, 1, 4, 2, 2, 4, 3, 3, 2, 2, 2, 3, 3, 1, 2, 1, 1, 3, 3, 3, 5, 2, 2, 4, 4, 4, 3, 2, 1, 4, 4, 4, 3, 2, 1, 4, 3, 2, 3, 3, 3, 5, 5, 5, 5, 4, 4, 1, 1, 1, 3, 3, 3, 4, 3, 3, 4, 4, 3, 3, 1, 1, 4, 2, 1, 5, 3, 3, 1, 1, 1, 5, 4, 3, 4, 4, 3, 3, 3, 3, 1, 1, 1, 2, 2, 2
 |4, 3, 3, 4, 4, 4, 5, 3, 3, 3, 2, 2, 4, 2, 2, 4, 2, 2, 5, 3, 3, 2, 2, 1, 4, 3, 3, 4, 2, 2, 3, 3, 2, 1, 1, 1, 2, 1, 1, 5, 4, 4, 3, 3, 3, 3, 2, 1, 5, 5, 5, 1, 1, 1, 4, 3, 2, 5, 4, 2, 5, 4, 4, 4, 3, 3, 2, 2, 2, 2, 1, 1, 3, 2, 2, 4, 2, 1, 2, 2, 2, 4, 3, 3, 3, 2, 2, 2, 2, 2, 2, 2, 2, 1, 1, 1, 4, 3, 2, 3, 3, 1, 2, 1, 1, 4, 4, 4, 4, 2, 2, 5, 3, 3, 3, 3, 2, 5, 3, 3, 4, 2, 2, 4, 3, 2, 4, 4, 4, 4, 3, 3, 4, 3, 1, 5, 4, 4, 4, 4, 4, 2, 1, 1, 5, 3, 3, 4, 4, 3
 |4, 3, 3, 3, 2, 2, 5, 4, 2, 2, 2, 1, 4, 3, 2, 1, 1, 1, 5, 5, 5, 4, 3, 3, 4, 3, 3, 3, 2, 2, 5, 5, 5, 3, 2, 1, 4, 4, 4, 5, 3, 3, 3, 3, 3, 4, 4, 3, 4, 4, 3, 4, 4, 4, 2, 1, 1, 4, 3, 2, 5, 4, 3, 3, 1, 1, 5, 3, 3, 3, 3, 3, 3, 2, 2, 4, 4, 4, 4, 3, 3, 2, 1, 1, 5, 4, 4, 4, 3, 2, 4, 2, 1, 4, 4, 4, 3, 2, 2, 3, 1, 1, 5, 4, 2, 2, 2, 2, 3, 2, 2, 3, 2, 1, 1, 1, 1, 5, 3, 3, 3, 3, 3, 2, 2, 2, 4, 3, 3, 4, 2, 2, 3, 2, 1, 5, 4, 4, 3, 2, 2, 5, 3, 3, 5, 3, 1, 4, 3, 2
 |17, 11, 3, 14, 8, 5, 20, 18, 17, 14, 13, 5, 27, 24, 24, 16, 16, 16, 10, 7, 5, 21, 21, 21, 24, 17, 10, 18, 11, 5, 24, 24, 24, 19, 15, 9, 18, 16, 14, 24, 24, 24, 13, 11, 8, 12, 11, 10, 14, 12, 10, 25, 23, 18, 3, 3, 3, 22, 17, 3, 15, 14, 7, 23, 22, 16, 21, 17, 17, 1, 1, 1, 15, 12, 4, 4, 3, 1, 19, 15, 11, 22, 22, 19, 13, 12, 8, 28, 25, 18, 29, 26, 24, 19, 13, 13, 21, 13, 11, 19, 10, 4, 11, 10, 7, 28, 24, 22, 11, 10, 6, 11, 11, 9, 19, 19, 18, 26, 18, 5, 11, 8, 3, 27, 15, 10, 7, 7, 5, 29, 26, 26, 17, 11, 10, 25, 19, 14, 16, 15, 14, 12, 10, 7, 6, 4, 3, 10, 8, 5
 |22, 14, 13, 19, 16, 9, 10, 9, 7, 22, 14, 7, 17, 11, 11, 22, 17, 11, 26, 20, 12, 22, 21, 21, 15, 12, 9, 13, 13, 13, 19, 17, 17, 17, 16, 15, 15, 12, 5, 29, 25, 20, 16, 16, 16, 6, 5, 5, 21, 16, 14, 15, 15, 14, 17, 16, 16, 20, 20, 4, 17, 15, 6, 24, 14, 10, 27, 14, 10, 23, 20, 13, 9, 9, 8, 23, 18, 11, 8, 6, 4, 21, 19, 18, 17, 14, 10, 16, 15, 14, 15, 12, 10, 22, 20, 19, 21, 17, 15, 22, 19, 18, 22, 16, 13, 7, 7, 5, 28, 28, 28, 11, 10, 7, 23, 13, 11, 27, 21, 14, 26, 24, 19, 11, 5, 3, 30, 22, 20, 11, 11, 9, 26, 19, 17, 18, 18, 17, 27, 26, 21, 26, 14, 14, 16, 16, 16, 16, 15, 15|];